results-backup/results-heuristic/Fattahi_setup_09_modified.fjs
2 11
2 41
2 77
3 8
1 63
2 133
1 0
3 62
3 149
