results/mps/Fattahi_setup_09_modified.mps
NAME F-JSSP-SDST
ROWS
 N  OBJ
 E  c0      
 E  c1      
 E  c2      
 E  c3      
 E  c4      
 E  c5      
 E  c6      
 E  c7      
 E  c8      
 G  c9      
 G  c10     
 G  c11     
 G  c12     
 G  c13     
 G  c14     
 G  c15     
 G  c16     
 G  c17     
 G  c18     
 G  c19     
 G  c20     
 G  c21     
 G  c22     
 L  c23     
 L  c24     
 L  c25     
 L  c26     
 L  c27     
 L  c28     
 L  c29     
 L  c30     
 L  c31     
 L  c32     
 L  c33     
 L  c34     
 L  c35     
 L  c36     
 L  c37     
 L  c38     
 L  c39     
 L  c40     
 G  c41     
 G  c42     
 G  c43     
 G  c44     
 G  c45     
 G  c46     
 G  c47     
 G  c48     
 G  c49     
 G  c50     
 G  c51     
 G  c52     
 G  c53     
 G  c54     
 G  c55     
 G  c56     
 G  c57     
 G  c58     
 G  c59     
 G  c60     
 G  c61     
 G  c62     
 G  c63     
 G  c64     
 G  c65     
 G  c66     
 G  c67     
 G  c68     
 G  c69     
 G  c70     
 G  c71     
 G  c72     
 G  c73     
 G  c74     
 G  c75     
 G  c76     
 G  c77     
 G  c78     
 G  c79     
 G  c80     
 G  c81     
 G  c82     
 G  c83     
 G  c84     
 G  c85     
 G  c86     
 G  c87     
 G  c88     
 G  c89     
 G  c90     
 G  c91     
 G  c92     
 G  c93     
 G  c94     
 G  c95     
 G  c96     
 G  c97     
 G  c98     
 G  c99     
 G  c100    
 G  c101    
 G  c102    
 G  c103    
 G  c104    
 G  c105    
 G  c106    
 G  c107    
 G  c108    
 G  c109    
 G  c110    
 G  c111    
 G  c112    
 G  c113    
 G  c114    
 G  c115    
 G  c116    
 G  c117    
 G  c118    
 G  c119    
 G  c120    
 G  c121    
 G  c122    
 G  c123    
 G  c124    
 G  c125    
 G  c126    
 G  c127    
 G  c128    
 G  c129    
 G  c130    
 G  c131    
 G  c132    
 G  c133    
 G  c134    
 G  c135    
 G  c136    
 G  c137    
 G  c138    
 G  c139    
 G  c140    
 G  c141    
 G  c142    
 G  c143    
 G  c144    
 G  c145    
 G  c146    
 G  c147    
 G  c148    
 G  c149    
 G  c150    
 G  c151    
 G  c152    
 G  c153    
 G  c154    
 G  c155    
 G  c156    
 G  c157    
 G  c158    
 G  c159    
 G  c160    
 G  c161    
 G  c162    
 G  c163    
 G  c164    
 G  c165    
 G  c166    
 G  c167    
 G  c168    
 G  c169    
 G  c170    
 G  c171    
 G  c172    
 G  c173    
 G  c174    
 G  c175    
 G  c176    
 G  c177    
 G  c178    
 E  c179    
COLUMNS
    MARKER    'MARKER'                 'INTORG'
    B0(16)    c0        1
    B0(16)    c9        -17
    B0(16)    c10       -1000000017
    B0(16)    c11       -17
    B0(16)    c23       -1000000000
    B0(16)    c41       -1000000000
    B0(16)    c42       -1000000000
    B0(16)    c47       -1000000000
    B0(16)    c48       -1000000000
    B0(16)    c49       -1000000000
    B0(16)    c50       -1000000000
    B0(16)    c55       -1000000000
    B0(16)    c56       -1000000000
    B0(16)    c63       -1000000000
    B0(16)    c64       -1000000000
    B0(16)    c143      -11
    B1(24)    c0        1
    B1(24)    c9        -25
    B1(24)    c10       -25
    B1(24)    c11       -1000000025
    B1(24)    c24       -1000000000
    B1(24)    c43       -1000000000
    B1(24)    c44       -1000000000
    B1(24)    c45       -1000000000
    B1(24)    c46       -1000000000
    B1(24)    c51       -1000000000
    B1(24)    c52       -1000000000
    B1(24)    c53       -1000000000
    B1(24)    c54       -1000000000
    B1(24)    c57       -1000000000
    B1(24)    c58       -1000000000
    B1(24)    c59       -1000000000
    B1(24)    c60       -1000000000
    B1(24)    c61       -1000000000
    B1(24)    c62       -1000000000
    B1(24)    c65       -1000000000
    B1(24)    c66       -1000000000
    B1(24)    c85       -1000000000
    B1(24)    c86       -1000000000
    B1(24)    c145      -11
    B2(16)    c1        1
    B2(16)    c10       -1000000000
    B2(16)    c12       -40
    B2(16)    c13       -40
    B2(16)    c25       -1000000000
    B2(16)    c41       -1000000000
    B2(16)    c42       -1000000000
    B2(16)    c63       -1000000000
    B2(16)    c64       -1000000000
    B2(16)    c69       -1000000000
    B2(16)    c70       -1000000000
    B2(16)    c71       -1000000000
    B2(16)    c72       -1000000000
    B2(16)    c77       -1000000000
    B2(16)    c78       -1000000000
    B2(16)    c147      -11
    B3(24)    c1        1
    B3(24)    c11       -1000000000
    B3(24)    c12       -30
    B3(24)    c13       -1000000030
    B3(24)    c26       -1000000000
    B3(24)    c43       -1000000000
    B3(24)    c44       -1000000000
    B3(24)    c65       -1000000000
    B3(24)    c66       -1000000000
    B3(24)    c67       -1000000000
    B3(24)    c68       -1000000000
    B3(24)    c73       -1000000000
    B3(24)    c74       -1000000000
    B3(24)    c75       -1000000000
    B3(24)    c76       -1000000000
    B3(24)    c79       -1000000000
    B3(24)    c80       -1000000000
    B3(24)    c81       -1000000000
    B3(24)    c82       -1000000000
    B3(24)    c83       -1000000000
    B3(24)    c84       -1000000000
    B3(24)    c87       -1000000000
    B3(24)    c88       -1000000000
    B3(24)    c149      -11
    B4(23)    c2        1
    B4(23)    c13       -1000000000
    B4(23)    c27       -1000000000
    B4(23)    c45       -1000000000
    B4(23)    c46       -1000000000
    B4(23)    c67       -1000000000
    B4(23)    c68       -1000000000
    B4(23)    c85       -1000000000
    B4(23)    c86       -1000000000
    B4(23)    c87       -1000000000
    B4(23)    c88       -1000000000
    B4(23)    c91       -1000000000
    B4(23)    c92       -1000000000
    B4(23)    c93       -1000000000
    B4(23)    c94       -1000000000
    B4(23)    c97       -1000000000
    B4(23)    c98       -1000000000
    B4(23)    c99       -1000000000
    B4(23)    c100      -1000000000
    B4(23)    c103      -1000000000
    B4(23)    c104      -1000000000
    B4(23)    c151      -11
    B4(23)    c179      -50
    B5(12)    c2        1
    B5(12)    c28       -1000000000
    B5(12)    c89       -1000000000
    B5(12)    c90       -1000000000
    B5(12)    c95       -1000000000
    B5(12)    c96       -1000000000
    B5(12)    c101      -1000000000
    B5(12)    c102      -1000000000
    B5(12)    c105      -1000000000
    B5(12)    c106      -1000000000
    B5(12)    c153      -11
    B5(12)    c179      -60
    B6(15)    c3        1
    B6(15)    c14       -30
    B6(15)    c15       -1000000030
    B6(15)    c29       -1000000000
    B6(15)    c47       -1000000000
    B6(15)    c48       -1000000000
    B6(15)    c69       -1000000000
    B6(15)    c70       -1000000000
    B6(15)    c107      -1000000000
    B6(15)    c108      -1000000000
    B6(15)    c111      -1000000000
    B6(15)    c112      -1000000000
    B6(15)    c117      -1000000000
    B6(15)    c118      -1000000000
    B6(15)    c155      -8
    B7(15)    c3        1
    B7(15)    c14       -50
    B7(15)    c15       -50
    B7(15)    c30       -1000000000
    B7(15)    c89       -1000000000
    B7(15)    c90       -1000000000
    B7(15)    c109      -1000000000
    B7(15)    c110      -1000000000
    B7(15)    c113      -1000000000
    B7(15)    c114      -1000000000
    B7(15)    c115      -1000000000
    B7(15)    c116      -1000000000
    B7(15)    c129      -1000000000
    B7(15)    c130      -1000000000
    B7(15)    c157      -8
    B8(16)    c4        1
    B8(16)    c15       -1000000000
    B8(16)    c16       -50
    B8(16)    c17       -50
    B8(16)    c31       -1000000000
    B8(16)    c49       -1000000000
    B8(16)    c50       -1000000000
    B8(16)    c71       -1000000000
    B8(16)    c72       -1000000000
    B8(16)    c107      -1000000000
    B8(16)    c108      -1000000000
    B8(16)    c117      -1000000000
    B8(16)    c118      -1000000000
    B8(16)    c121      -1000000000
    B8(16)    c122      -1000000000
    B8(16)    c159      -8
    B9(21)    c4        1
    B9(21)    c16       -60
    B9(21)    c17       -1000000060
    B9(21)    c32       -1000000000
    B9(21)    c51       -1000000000
    B9(21)    c52       -1000000000
    B9(21)    c73       -1000000000
    B9(21)    c74       -1000000000
    B9(21)    c91       -1000000000
    B9(21)    c92       -1000000000
    B9(21)    c119      -1000000000
    B9(21)    c120      -1000000000
    B9(21)    c123      -1000000000
    B9(21)    c124      -1000000000
    B9(21)    c125      -1000000000
    B9(21)    c126      -1000000000
    B9(21)    c127      -1000000000
    B9(21)    c128      -1000000000
    B9(21)    c131      -1000000000
    B9(21)    c132      -1000000000
    B9(21)    c161      -8
    B10(21)   c5        1
    B10(21)   c17       -1000000000
    B10(21)   c33       -1000000000
    B10(21)   c53       -1000000000
    B10(21)   c54       -1000000000
    B10(21)   c75       -1000000000
    B10(21)   c76       -1000000000
    B10(21)   c93       -1000000000
    B10(21)   c94       -1000000000
    B10(21)   c119      -1000000000
    B10(21)   c120      -1000000000
    B10(21)   c131      -1000000000
    B10(21)   c132      -1000000000
    B10(21)   c133      -1000000000
    B10(21)   c134      -1000000000
    B10(21)   c135      -1000000000
    B10(21)   c136      -1000000000
    B10(21)   c139      -1000000000
    B10(21)   c140      -1000000000
    B10(21)   c163      -8
    B10(21)   c179      -70
    B11(14)   c5        1
    B11(14)   c34       -1000000000
    B11(14)   c95       -1000000000
    B11(14)   c96       -1000000000
    B11(14)   c109      -1000000000
    B11(14)   c110      -1000000000
    B11(14)   c129      -1000000000
    B11(14)   c130      -1000000000
    B11(14)   c137      -1000000000
    B11(14)   c138      -1000000000
    B11(14)   c141      -1000000000
    B11(14)   c142      -1000000000
    B11(14)   c165      -8
    B11(14)   c179      -60
    B12(12)   c6        1
    B12(12)   c18       -50
    B12(12)   c19       -50
    B12(12)   c35       -1000000000
    B12(12)   c55       -1000000000
    B12(12)   c56       -1000000000
    B12(12)   c77       -1000000000
    B12(12)   c78       -1000000000
    B12(12)   c111      -1000000000
    B12(12)   c112      -1000000000
    B12(12)   c121      -1000000000
    B12(12)   c122      -1000000000
    B13(14)   c6        1
    B13(14)   c18       -60
    B13(14)   c19       -1000000060
    B13(14)   c36       -1000000000
    B13(14)   c57       -1000000000
    B13(14)   c58       -1000000000
    B13(14)   c79       -1000000000
    B13(14)   c80       -1000000000
    B13(14)   c97       -1000000000
    B13(14)   c98       -1000000000
    B13(14)   c123      -1000000000
    B13(14)   c124      -1000000000
    B13(14)   c133      -1000000000
    B13(14)   c134      -1000000000
    B14(16)   c7        1
    B14(16)   c19       -1000000000
    B14(16)   c20       -70
    B14(16)   c21       -1000000070
    B14(16)   c22       -70
    B14(16)   c37       -1000000000
    B14(16)   c59       -1000000000
    B14(16)   c60       -1000000000
    B14(16)   c81       -1000000000
    B14(16)   c82       -1000000000
    B14(16)   c99       -1000000000
    B14(16)   c100      -1000000000
    B14(16)   c125      -1000000000
    B14(16)   c126      -1000000000
    B14(16)   c135      -1000000000
    B14(16)   c136      -1000000000
    B15(11)   c7        1
    B15(11)   c20       -80
    B15(11)   c21       -80
    B15(11)   c22       -1000000080
    B15(11)   c38       -1000000000
    B15(11)   c101      -1000000000
    B15(11)   c102      -1000000000
    B15(11)   c113      -1000000000
    B15(11)   c114      -1000000000
    B15(11)   c137      -1000000000
    B15(11)   c138      -1000000000
    B16(14)   c8        1
    B16(14)   c21       -1000000000
    B16(14)   c39       -1000000000
    B16(14)   c61       -1000000000
    B16(14)   c62       -1000000000
    B16(14)   c83       -1000000000
    B16(14)   c84       -1000000000
    B16(14)   c103      -1000000000
    B16(14)   c104      -1000000000
    B16(14)   c127      -1000000000
    B16(14)   c128      -1000000000
    B16(14)   c139      -1000000000
    B16(14)   c140      -1000000000
    B16(14)   c179      -90
    B17(10)   c8        1
    B17(10)   c22       -1000000000
    B17(10)   c40       -1000000000
    B17(10)   c105      -1000000000
    B17(10)   c106      -1000000000
    B17(10)   c115      -1000000000
    B17(10)   c116      -1000000000
    B17(10)   c141      -1000000000
    B17(10)   c142      -1000000000
    B17(10)   c179      -100
    B18(0)    OBJ       0
    B19(4)    c41       -1000000000
    B19(4)    c42       1000000000
    B19(4)    c43       -1000000000
    B19(4)    c44       1000000000
    B20(2)    c45       -1000000000
    B20(2)    c46       1000000000
    B21(2)    c47       -1000000000
    B21(2)    c48       1000000000
    B22(4)    c49       -1000000000
    B22(4)    c50       1000000000
    B22(4)    c51       -1000000000
    B22(4)    c52       1000000000
    B23(2)    c53       -1000000000
    B23(2)    c54       1000000000
    B24(4)    c55       -1000000000
    B24(4)    c56       1000000000
    B24(4)    c57       -1000000000
    B24(4)    c58       1000000000
    B25(2)    c59       -1000000000
    B25(2)    c60       1000000000
    B26(2)    c61       -1000000000
    B26(2)    c62       1000000000
    B27(4)    c63       -1000000000
    B27(4)    c64       1000000000
    B27(4)    c65       -1000000000
    B27(4)    c66       1000000000
    B28(0)    OBJ       0
    B29(2)    c67       -1000000000
    B29(2)    c68       1000000000
    B30(2)    c69       -1000000000
    B30(2)    c70       1000000000
    B31(4)    c71       -1000000000
    B31(4)    c72       1000000000
    B31(4)    c73       -1000000000
    B31(4)    c74       1000000000
    B32(2)    c75       -1000000000
    B32(2)    c76       1000000000
    B33(4)    c77       -1000000000
    B33(4)    c78       1000000000
    B33(4)    c79       -1000000000
    B33(4)    c80       1000000000
    B34(2)    c81       -1000000000
    B34(2)    c82       1000000000
    B35(2)    c83       -1000000000
    B35(2)    c84       1000000000
    B36(2)    c85       -1000000000
    B36(2)    c86       1000000000
    B37(2)    c87       -1000000000
    B37(2)    c88       1000000000
    B38(0)    OBJ       0
    B39(2)    c89       -1000000000
    B39(2)    c90       1000000000
    B40(2)    c91       -1000000000
    B40(2)    c92       1000000000
    B41(4)    c93       -1000000000
    B41(4)    c94       1000000000
    B41(4)    c95       -1000000000
    B41(4)    c96       1000000000
    B42(2)    c97       -1000000000
    B42(2)    c98       1000000000
    B43(4)    c99       -1000000000
    B43(4)    c100      1000000000
    B43(4)    c101      -1000000000
    B43(4)    c102      1000000000
    B44(4)    c103      -1000000000
    B44(4)    c104      1000000000
    B44(4)    c105      -1000000000
    B44(4)    c106      1000000000
    B45(0)    OBJ       0
    B46(0)    OBJ       0
    B47(0)    OBJ       0
    B48(0)    OBJ       0
    B49(2)    c107      -1000000000
    B49(2)    c108      1000000000
    B50(2)    c109      -1000000000
    B50(2)    c110      1000000000
    B51(2)    c111      -1000000000
    B51(2)    c112      1000000000
    B52(2)    c113      -1000000000
    B52(2)    c114      1000000000
    B53(2)    c115      -1000000000
    B53(2)    c116      1000000000
    B54(0)    OBJ       0
    B55(0)    OBJ       0
    B56(0)    OBJ       0
    B57(2)    c117      -1000000000
    B57(2)    c118      1000000000
    B58(0)    OBJ       0
    B59(2)    c119      -1000000000
    B59(2)    c120      1000000000
    B60(4)    c121      -1000000000
    B60(4)    c122      1000000000
    B60(4)    c123      -1000000000
    B60(4)    c124      1000000000
    B61(2)    c125      -1000000000
    B61(2)    c126      1000000000
    B62(2)    c127      -1000000000
    B62(2)    c128      1000000000
    B63(0)    OBJ       0
    B64(0)    OBJ       0
    B65(0)    OBJ       0
    B66(2)    c129      -1000000000
    B66(2)    c130      1000000000
    B67(2)    c131      -1000000000
    B67(2)    c132      1000000000
    B68(0)    OBJ       0
    B69(2)    c133      -1000000000
    B69(2)    c134      1000000000
    B70(4)    c135      -1000000000
    B70(4)    c136      1000000000
    B70(4)    c137      -1000000000
    B70(4)    c138      1000000000
    B71(4)    c139      -1000000000
    B71(4)    c140      1000000000
    B71(4)    c141      -1000000000
    B71(4)    c142      1000000000
    B72(0)    OBJ       0
    B73(0)    OBJ       0
    B74(0)    OBJ       0
    B75(0)    OBJ       0
    B76(0)    OBJ       0
    B77(0)    OBJ       0
    B78(0)    OBJ       0
    B79(0)    OBJ       0
    B80(0)    OBJ       0
    B81(0)    OBJ       0
    B82(0)    OBJ       0
    B83(0)    OBJ       0
    B84(0)    OBJ       0
    B85(0)    OBJ       0
    B86(0)    OBJ       0
    B87(0)    OBJ       0
    B88(0)    OBJ       0
    B89(0)    OBJ       0
    B90(0)    OBJ       0
    B91(0)    OBJ       0
    B92(0)    OBJ       0
    B93(0)    OBJ       0
    B94(0)    OBJ       0
    B95(0)    OBJ       0
    B96(0)    OBJ       0
    B97(0)    OBJ       0
    B98(0)    OBJ       0
    I99(16)   c9        -1
    I99(16)   c10       -1
    I99(16)   c11       -1
    I99(16)   c23       1
    I99(16)   c41       1
    I99(16)   c42       -1
    I99(16)   c47       1
    I99(16)   c48       -1
    I99(16)   c49       1
    I99(16)   c50       -1
    I99(16)   c55       1
    I99(16)   c56       -1
    I99(16)   c63       -1
    I99(16)   c64       1
    I99(16)   c143      1
    I99(16)   c144      1
    I100(24)  c9        -1
    I100(24)  c10       -1
    I100(24)  c11       -1
    I100(24)  c24       1
    I100(24)  c43       1
    I100(24)  c44       -1
    I100(24)  c45       1
    I100(24)  c46       -1
    I100(24)  c51       1
    I100(24)  c52       -1
    I100(24)  c53       1
    I100(24)  c54       -1
    I100(24)  c57       1
    I100(24)  c58       -1
    I100(24)  c59       1
    I100(24)  c60       -1
    I100(24)  c61       1
    I100(24)  c62       -1
    I100(24)  c65       -1
    I100(24)  c66       1
    I100(24)  c85       -1
    I100(24)  c86       1
    I100(24)  c145      1
    I100(24)  c146      1
    I101(18)  c9        1
    I101(18)  c10       1
    I101(18)  c11       1
    I101(18)  c12       -1
    I101(18)  c13       -1
    I101(18)  c25       1
    I101(18)  c41       -1
    I101(18)  c42       1
    I101(18)  c63       1
    I101(18)  c64       -1
    I101(18)  c69       1
    I101(18)  c70       -1
    I101(18)  c71       1
    I101(18)  c72       -1
    I101(18)  c77       1
    I101(18)  c78       -1
    I101(18)  c147      1
    I101(18)  c148      1
    I102(26)  c9        1
    I102(26)  c10       1
    I102(26)  c11       1
    I102(26)  c12       -1
    I102(26)  c13       -1
    I102(26)  c26       1
    I102(26)  c43       -1
    I102(26)  c44       1
    I102(26)  c65       1
    I102(26)  c66       -1
    I102(26)  c67       1
    I102(26)  c68       -1
    I102(26)  c73       1
    I102(26)  c74       -1
    I102(26)  c75       1
    I102(26)  c76       -1
    I102(26)  c79       1
    I102(26)  c80       -1
    I102(26)  c81       1
    I102(26)  c82       -1
    I102(26)  c83       1
    I102(26)  c84       -1
    I102(26)  c87       -1
    I102(26)  c88       1
    I102(26)  c149      1
    I102(26)  c150      1
    I103(24)  c12       1
    I103(24)  c13       1
    I103(24)  c27       1
    I103(24)  c45       -1
    I103(24)  c46       1
    I103(24)  c67       -1
    I103(24)  c68       1
    I103(24)  c85       1
    I103(24)  c86       -1
    I103(24)  c87       1
    I103(24)  c88       -1
    I103(24)  c91       1
    I103(24)  c92       -1
    I103(24)  c93       1
    I103(24)  c94       -1
    I103(24)  c97       1
    I103(24)  c98       -1
    I103(24)  c99       1
    I103(24)  c100      -1
    I103(24)  c103      1
    I103(24)  c104      -1
    I103(24)  c151      1
    I103(24)  c152      1
    I103(24)  c179      -1
    I104(14)  c12       1
    I104(14)  c13       1
    I104(14)  c28       1
    I104(14)  c89       1
    I104(14)  c90       -1
    I104(14)  c95       1
    I104(14)  c96       -1
    I104(14)  c101      1
    I104(14)  c102      -1
    I104(14)  c105      1
    I104(14)  c106      -1
    I104(14)  c153      1
    I104(14)  c154      1
    I104(14)  c179      -1
    I105(15)  c14       -1
    I105(15)  c15       -1
    I105(15)  c29       1
    I105(15)  c47       -1
    I105(15)  c48       1
    I105(15)  c69       -1
    I105(15)  c70       1
    I105(15)  c107      1
    I105(15)  c108      -1
    I105(15)  c111      1
    I105(15)  c112      -1
    I105(15)  c117      -1
    I105(15)  c118      1
    I105(15)  c155      1
    I105(15)  c156      1
    I106(15)  c14       -1
    I106(15)  c15       -1
    I106(15)  c30       1
    I106(15)  c89       -1
    I106(15)  c90       1
    I106(15)  c109      1
    I106(15)  c110      -1
    I106(15)  c113      1
    I106(15)  c114      -1
    I106(15)  c115      1
    I106(15)  c116      -1
    I106(15)  c129      -1
    I106(15)  c130      1
    I106(15)  c157      1
    I106(15)  c158      1
    I107(17)  c14       1
    I107(17)  c15       1
    I107(17)  c16       -1
    I107(17)  c17       -1
    I107(17)  c31       1
    I107(17)  c49       -1
    I107(17)  c50       1
    I107(17)  c71       -1
    I107(17)  c72       1
    I107(17)  c107      -1
    I107(17)  c108      1
    I107(17)  c117      1
    I107(17)  c118      -1
    I107(17)  c121      1
    I107(17)  c122      -1
    I107(17)  c159      1
    I107(17)  c160      1
    I108(23)  c14       1
    I108(23)  c15       1
    I108(23)  c16       -1
    I108(23)  c17       -1
    I108(23)  c32       1
    I108(23)  c51       -1
    I108(23)  c52       1
    I108(23)  c73       -1
    I108(23)  c74       1
    I108(23)  c91       -1
    I108(23)  c92       1
    I108(23)  c119      1
    I108(23)  c120      -1
    I108(23)  c123      1
    I108(23)  c124      -1
    I108(23)  c125      1
    I108(23)  c126      -1
    I108(23)  c127      1
    I108(23)  c128      -1
    I108(23)  c131      -1
    I108(23)  c132      1
    I108(23)  c161      1
    I108(23)  c162      1
    I109(22)  c16       1
    I109(22)  c17       1
    I109(22)  c33       1
    I109(22)  c53       -1
    I109(22)  c54       1
    I109(22)  c75       -1
    I109(22)  c76       1
    I109(22)  c93       -1
    I109(22)  c94       1
    I109(22)  c119      -1
    I109(22)  c120      1
    I109(22)  c131      1
    I109(22)  c132      -1
    I109(22)  c133      1
    I109(22)  c134      -1
    I109(22)  c135      1
    I109(22)  c136      -1
    I109(22)  c139      1
    I109(22)  c140      -1
    I109(22)  c163      1
    I109(22)  c164      1
    I109(22)  c179      -1
    I110(16)  c16       1
    I110(16)  c17       1
    I110(16)  c34       1
    I110(16)  c95       -1
    I110(16)  c96       1
    I110(16)  c109      -1
    I110(16)  c110      1
    I110(16)  c129      1
    I110(16)  c130      -1
    I110(16)  c137      1
    I110(16)  c138      -1
    I110(16)  c141      1
    I110(16)  c142      -1
    I110(16)  c165      1
    I110(16)  c166      1
    I110(16)  c179      -1
    I111(13)  c18       -1
    I111(13)  c19       -1
    I111(13)  c35       1
    I111(13)  c55       -1
    I111(13)  c56       1
    I111(13)  c77       -1
    I111(13)  c78       1
    I111(13)  c111      -1
    I111(13)  c112      1
    I111(13)  c121      -1
    I111(13)  c122      1
    I111(13)  c167      1
    I111(13)  c168      1
    I112(15)  c18       -1
    I112(15)  c19       -1
    I112(15)  c36       1
    I112(15)  c57       -1
    I112(15)  c58       1
    I112(15)  c79       -1
    I112(15)  c80       1
    I112(15)  c97       -1
    I112(15)  c98       1
    I112(15)  c123      -1
    I112(15)  c124      1
    I112(15)  c133      -1
    I112(15)  c134      1
    I112(15)  c169      1
    I112(15)  c170      1
    I113(18)  c18       1
    I113(18)  c19       1
    I113(18)  c20       -1
    I113(18)  c21       -1
    I113(18)  c22       -1
    I113(18)  c37       1
    I113(18)  c59       -1
    I113(18)  c60       1
    I113(18)  c81       -1
    I113(18)  c82       1
    I113(18)  c99       -1
    I113(18)  c100      1
    I113(18)  c125      -1
    I113(18)  c126      1
    I113(18)  c135      -1
    I113(18)  c136      1
    I113(18)  c171      1
    I113(18)  c172      1
    I114(14)  c18       1
    I114(14)  c19       1
    I114(14)  c20       -1
    I114(14)  c21       -1
    I114(14)  c22       -1
    I114(14)  c38       1
    I114(14)  c101      -1
    I114(14)  c102      1
    I114(14)  c113      -1
    I114(14)  c114      1
    I114(14)  c137      -1
    I114(14)  c138      1
    I114(14)  c173      1
    I114(14)  c174      1
    I115(17)  c20       1
    I115(17)  c21       1
    I115(17)  c22       1
    I115(17)  c39       1
    I115(17)  c61       -1
    I115(17)  c62       1
    I115(17)  c83       -1
    I115(17)  c84       1
    I115(17)  c103      -1
    I115(17)  c104      1
    I115(17)  c127      -1
    I115(17)  c128      1
    I115(17)  c139      -1
    I115(17)  c140      1
    I115(17)  c175      1
    I115(17)  c176      1
    I115(17)  c179      -1
    I116(13)  c20       1
    I116(13)  c21       1
    I116(13)  c22       1
    I116(13)  c40       1
    I116(13)  c105      -1
    I116(13)  c106      1
    I116(13)  c115      -1
    I116(13)  c116      1
    I116(13)  c141      -1
    I116(13)  c142      1
    I116(13)  c177      1
    I116(13)  c178      1
    I116(13)  c179      -1
    I117(1)   OBJ       1
    I117(1)   c179      1
    MARKER    'MARKER'                 'INTEND'
RHS
    RHS1      c0        1
    RHS1      c1        1
    RHS1      c2        1
    RHS1      c3        1
    RHS1      c4        1
    RHS1      c5        1
    RHS1      c6        1
    RHS1      c7        1
    RHS1      c8        1
    RHS1      c10       -1999999993
    RHS1      c11       -1999999995
    RHS1      c13       -1999999994
    RHS1      c15       -1999999993
    RHS1      c17       -1999999995
    RHS1      c19       -1999999993
    RHS1      c21       -1999999994
    RHS1      c22       -1999999993
    RHS1      c41       -2999999953
    RHS1      c42       -1999999976
    RHS1      c43       -2999999965
    RHS1      c44       -1999999970
    RHS1      c45       -2999999944
    RHS1      c46       -1999999969
    RHS1      c47       -2999999964
    RHS1      c48       -1999999978
    RHS1      c49       -2999999945
    RHS1      c50       -1999999979
    RHS1      c51       -2999999934
    RHS1      c52       -1999999969
    RHS1      c53       -2999999924
    RHS1      c54       -1999999969
    RHS1      c55       -2999999945
    RHS1      c56       -1999999978
    RHS1      c57       -2999999933
    RHS1      c58       -1999999969
    RHS1      c59       -2999999925
    RHS1      c60       -1999999970
    RHS1      c61       -2999999903
    RHS1      c62       -1999999968
    RHS1      c63       -2999999976
    RHS1      c64       -1999999953
    RHS1      c65       -2999999970
    RHS1      c66       -1999999965
    RHS1      c67       -2999999944
    RHS1      c68       -1999999964
    RHS1      c69       -2999999964
    RHS1      c70       -1999999955
    RHS1      c71       -2999999944
    RHS1      c72       -1999999954
    RHS1      c73       -2999999934
    RHS1      c74       -1999999965
    RHS1      c75       -2999999926
    RHS1      c76       -1999999966
    RHS1      c77       -2999999944
    RHS1      c78       -1999999954
    RHS1      c79       -2999999934
    RHS1      c80       -1999999963
    RHS1      c81       -2999999925
    RHS1      c82       -1999999964
    RHS1      c83       -2999999905
    RHS1      c84       -1999999966
    RHS1      c85       -2999999969
    RHS1      c86       -1999999944
    RHS1      c87       -2999999964
    RHS1      c88       -1999999944
    RHS1      c89       -2999999945
    RHS1      c90       -1999999933
    RHS1      c91       -2999999934
    RHS1      c92       -1999999944
    RHS1      c93       -2999999924
    RHS1      c94       -1999999944
    RHS1      c95       -2999999934
    RHS1      c96       -1999999935
    RHS1      c97       -2999999936
    RHS1      c98       -1999999943
    RHS1      c99       -2999999924
    RHS1      c100      -1999999945
    RHS1      c101      -2999999913
    RHS1      c102      -1999999934
    RHS1      c103      -2999999905
    RHS1      c104      -1999999943
    RHS1      c105      -2999999895
    RHS1      c106      -1999999936
    RHS1      c107      -2999999944
    RHS1      c108      -1999999963
    RHS1      c109      -2999999935
    RHS1      c110      -1999999943
    RHS1      c111      -2999999945
    RHS1      c112      -1999999966
    RHS1      c113      -2999999916
    RHS1      c114      -1999999946
    RHS1      c115      -2999999894
    RHS1      c116      -1999999944
    RHS1      c117      -2999999963
    RHS1      c118      -1999999944
    RHS1      c119      -2999999924
    RHS1      c120      -1999999935
    RHS1      c121      -2999999945
    RHS1      c122      -1999999946
    RHS1      c123      -2999999935
    RHS1      c124      -1999999934
    RHS1      c125      -2999999924
    RHS1      c126      -1999999935
    RHS1      c127      -2999999903
    RHS1      c128      -1999999934
    RHS1      c129      -2999999943
    RHS1      c130      -1999999935
    RHS1      c131      -2999999935
    RHS1      c132      -1999999924
    RHS1      c133      -2999999935
    RHS1      c134      -1999999924
    RHS1      c135      -2999999925
    RHS1      c136      -1999999926
    RHS1      c137      -2999999914
    RHS1      c138      -1999999935
    RHS1      c139      -2999999905
    RHS1      c140      -1999999924
    RHS1      c141      -2999999894
    RHS1      c142      -1999999935
BOUNDS
 BV BND1      B0(16)  
 BV BND1      B1(24)  
 BV BND1      B2(16)  
 BV BND1      B3(24)  
 BV BND1      B4(23)  
 BV BND1      B5(12)  
 BV BND1      B6(15)  
 BV BND1      B7(15)  
 BV BND1      B8(16)  
 BV BND1      B9(21)  
 BV BND1      B10(21) 
 BV BND1      B11(14) 
 BV BND1      B12(12) 
 BV BND1      B13(14) 
 BV BND1      B14(16) 
 BV BND1      B15(11) 
 BV BND1      B16(14) 
 BV BND1      B17(10) 
 BV BND1      B18(0)  
 BV BND1      B19(4)  
 BV BND1      B20(2)  
 BV BND1      B21(2)  
 BV BND1      B22(4)  
 BV BND1      B23(2)  
 BV BND1      B24(4)  
 BV BND1      B25(2)  
 BV BND1      B26(2)  
 BV BND1      B27(4)  
 BV BND1      B28(0)  
 BV BND1      B29(2)  
 BV BND1      B30(2)  
 BV BND1      B31(4)  
 BV BND1      B32(2)  
 BV BND1      B33(4)  
 BV BND1      B34(2)  
 BV BND1      B35(2)  
 BV BND1      B36(2)  
 BV BND1      B37(2)  
 BV BND1      B38(0)  
 BV BND1      B39(2)  
 BV BND1      B40(2)  
 BV BND1      B41(4)  
 BV BND1      B42(2)  
 BV BND1      B43(4)  
 BV BND1      B44(4)  
 BV BND1      B45(0)  
 BV BND1      B46(0)  
 BV BND1      B47(0)  
 BV BND1      B48(0)  
 BV BND1      B49(2)  
 BV BND1      B50(2)  
 BV BND1      B51(2)  
 BV BND1      B52(2)  
 BV BND1      B53(2)  
 BV BND1      B54(0)  
 BV BND1      B55(0)  
 BV BND1      B56(0)  
 BV BND1      B57(2)  
 BV BND1      B58(0)  
 BV BND1      B59(2)  
 BV BND1      B60(4)  
 BV BND1      B61(2)  
 BV BND1      B62(2)  
 BV BND1      B63(0)  
 BV BND1      B64(0)  
 BV BND1      B65(0)  
 BV BND1      B66(2)  
 BV BND1      B67(2)  
 BV BND1      B68(0)  
 BV BND1      B69(2)  
 BV BND1      B70(4)  
 BV BND1      B71(4)  
 BV BND1      B72(0)  
 BV BND1      B73(0)  
 BV BND1      B74(0)  
 BV BND1      B75(0)  
 BV BND1      B76(0)  
 BV BND1      B77(0)  
 BV BND1      B78(0)  
 BV BND1      B79(0)  
 BV BND1      B80(0)  
 BV BND1      B81(0)  
 BV BND1      B82(0)  
 BV BND1      B83(0)  
 BV BND1      B84(0)  
 BV BND1      B85(0)  
 BV BND1      B86(0)  
 BV BND1      B87(0)  
 BV BND1      B88(0)  
 BV BND1      B89(0)  
 BV BND1      B90(0)  
 BV BND1      B91(0)  
 BV BND1      B92(0)  
 BV BND1      B93(0)  
 BV BND1      B94(0)  
 BV BND1      B95(0)  
 BV BND1      B96(0)  
 BV BND1      B97(0)  
 BV BND1      B98(0)  
 LI BND1      I99(16)   0
 LI BND1      I100(24)  0
 LI BND1      I101(18)  0
 LI BND1      I102(26)  0
 LI BND1      I103(24)  0
 LI BND1      I104(14)  0
 LI BND1      I105(15)  0
 LI BND1      I106(15)  0
 LI BND1      I107(17)  0
 LI BND1      I108(23)  0
 LI BND1      I109(22)  0
 LI BND1      I110(16)  0
 LI BND1      I111(13)  0
 LI BND1      I112(15)  0
 LI BND1      I113(18)  0
 LI BND1      I114(14)  0
 LI BND1      I115(17)  0
 LI BND1      I116(13)  0
 LI BND1      I117(1)   0
ENDATA
