results-backups/results-2023-06-02/results/sol/Fattahi_setup_09_modified.sol
# Solution for model F-JSSP-SDST
# Objective value = 553
B0(16) 0
B1(24) 1
B2(16) 0
B3(24) 1
B4(23) 1
B5(12) 0
B6(15) 1
B7(15) 0
B8(16) 1
B9(21) 0
B10(21) 0
B11(14) 1
B12(12) 1
B13(14) 0
B14(16) 0
B15(11) 1
B16(14) 1
B17(10) 0
B18(0) 0
B19(4) 0
B20(2) 0
B21(2) 0
B22(4) 0
B23(2) 0
B24(4) 1
B25(2) 0
B26(2) 0
B27(4) 1
B28(0) 0
B29(2) 0
B30(2) 0
B31(4) 0
B32(2) 0
B33(4) 0
B34(2) 0
B35(2) 0
B36(2) 1
B37(2) 1
B38(0) 0
B39(2) 0
B40(2) 1
B41(4) 0
B42(2) 0
B43(4) 1
B44(4) 0
B45(0) 0
B46(0) 0
B47(0) 0
B48(0) 0
B49(2) 0
B50(2) 0
B51(2) 1
B52(2) 0
B53(2) 0
B54(0) 0
B55(0) 0
B56(0) 0
B57(2) 1
B58(0) 0
B59(2) 0
B60(4) 1
B61(2) 0
B62(2) 0
B63(0) 0
B64(0) 0
B65(0) 0
B66(2) 1
B67(2) 0
B68(0) 0
B69(2) 0
B70(4) 1
B71(4) 0
B72(0) 0
B73(0) 0
B74(0) 0
B75(0) 0
B76(0) 0
B77(0) 0
B78(0) 0
B79(0) 0
B80(0) 0
B81(0) 0
B82(0) 0
B83(0) 0
B84(0) 0
B85(0) 0
B86(0) 0
B87(0) 0
B88(0) 0
B89(0) 0
B90(0) 0
B91(0) 0
B92(0) 0
B93(0) 0
B94(0) 0
B95(0) 0
B96(0) 0
B97(0) 0
B98(0) 0
I99(16) 0
I100(24) 11
I101(18) 0
I102(26) 41
I103(24) 77
I104(14) 0
I105(15) 55
I106(15) 0
I107(17) 92
I108(23) 0
I109(22) 0
I110(16) 142
I111(13) 0
I112(15) 0
I113(18) 0
I114(14) 50
I115(17) 134
I116(13) 0
I117(1) 553
